words_hard_train/3199.qaiger
aag 106 16 0 1 90
2
4
8
10
28
32
42
50
52
72
74
88
100
124
148
170
212
6 2 4
12 9 11
14 8 10
16 13 15
18 7 17
20 6 16
22 19 21
24 3 5
26 25 7
30 27 28
34 31 33
36 23 35
38 30 32
40 37 39
44 41 42
46 40 43
48 21 15
54 51 53
56 50 52
58 55 57
60 48 59
62 49 58
64 61 63
66 47 65
68 45 67
70 63 57
76 73 75
78 72 74
80 77 79
82 70 81
84 71 80
86 83 85
90 86 89
92 69 91
94 87 88
96 93 95
98 85 79
102 89 101
104 88 100
106 103 105
108 98 107
110 99 106
112 109 111
114 112 73
116 97 115
118 113 72
120 117 119
122 111 105
126 43 125
128 42 124
130 127 129
132 122 131
134 123 130
136 133 135
138 136 51
140 121 139
142 137 50
144 141 143
146 135 129
150 33 149
152 32 148
154 151 153
156 146 155
158 147 154
160 157 159
162 161 8
164 144 163
166 160 9
168 165 167
172 28 171
174 29 170
176 173 175
178 159 153
180 177 179
182 176 178
184 181 183
186 184 3
188 169 187
190 185 2
192 189 191
194 64 112
196 194 16
198 26 136
200 198 86
202 200 160
204 196 202
206 204 185
208 192 207
210 193 206
212 209 211
i0 1 x1[0]
i1 2 y2[0]
i2 1 x1[1]
i3 2 y2[1]
i4 1 x1[7]
i5 1 x1[6]
i6 1 x1[5]
i7 1 x1[2]
i8 2 y2[2]
i9 1 x1[3]
i10 2 y2[3]
i11 1 x1[4]
i12 2 y2[4]
i13 2 y2[5]
i14 2 y2[6]
i15 2 y2[7]
o0 bv[0]
c
simplified
  <
    reverse
      1 x1
    add
      1
      add
        1 x1
        2 y2
