words_hard_train/3199.qaiger.qdimacs
p cnf 106 271
a 1 4 36 44 14 16 21 25 0
e 2 3 5 6 7 8 9 10 11 12 13 15 17 18 19 20 22 23 24 26 27 28 29 30 31 32 33 34 35 37 38 39 40 41 42 43 45 46 47 48 49 50 51 52 53 54 55 56 57 58 59 60 61 62 63 64 65 66 67 68 69 70 71 72 73 74 75 76 77 78 79 80 81 82 83 84 85 86 87 88 89 90 91 92 93 94 95 96 97 98 99 100 101 102 103 104 105 106 0
-1 -2 3 0
1 -3 0
2 -3 0
4 5 6 0
-4 -6 0
-5 -6 0
-4 -5 7 0
4 -7 0
5 -7 0
6 7 8 0
-6 -8 0
-7 -8 0
3 8 9 0
-3 -9 0
-8 -9 0
-3 -8 10 0
3 -10 0
8 -10 0
9 10 11 0
-9 -11 0
-10 -11 0
1 2 12 0
-1 -12 0
-2 -12 0
12 3 13 0
-12 -13 0
-3 -13 0
13 -14 15 0
-13 -15 0
14 -15 0
15 16 17 0
-15 -17 0
-16 -17 0
11 17 18 0
-11 -18 0
-17 -18 0
-15 -16 19 0
15 -19 0
16 -19 0
18 19 20 0
-18 -20 0
-19 -20 0
20 -21 22 0
-20 -22 0
21 -22 0
-20 21 23 0
20 -23 0
-21 -23 0
10 7 24 0
-10 -24 0
-7 -24 0
25 26 27 0
-25 -27 0
-26 -27 0
-25 -26 28 0
25 -28 0
26 -28 0
27 28 29 0
-27 -29 0
-28 -29 0
-24 29 30 0
24 -30 0
-29 -30 0
24 -29 31 0
-24 -31 0
29 -31 0
30 31 32 0
-30 -32 0
-31 -32 0
23 32 33 0
-23 -33 0
-32 -33 0
22 33 34 0
-22 -34 0
-33 -34 0
31 28 35 0
-31 -35 0
-28 -35 0
36 37 38 0
-36 -38 0
-37 -38 0
-36 -37 39 0
36 -39 0
37 -39 0
38 39 40 0
-38 -40 0
-39 -40 0
-35 40 41 0
35 -41 0
-40 -41 0
35 -40 42 0
-35 -42 0
40 -42 0
41 42 43 0
-41 -43 0
-42 -43 0
-43 44 45 0
43 -45 0
-44 -45 0
34 45 46 0
-34 -46 0
-45 -46 0
43 -44 47 0
-43 -47 0
44 -47 0
46 47 48 0
-46 -48 0
-47 -48 0
42 39 49 0
-42 -49 0
-39 -49 0
44 50 51 0
-44 -51 0
-50 -51 0
-44 -50 52 0
44 -52 0
50 -52 0
51 52 53 0
-51 -53 0
-52 -53 0
-49 53 54 0
49 -54 0
-53 -54 0
49 -53 55 0
-49 -55 0
53 -55 0
54 55 56 0
-54 -56 0
-55 -56 0
-56 36 57 0
56 -57 0
-36 -57 0
48 57 58 0
-48 -58 0
-57 -58 0
56 -36 59 0
-56 -59 0
36 -59 0
58 59 60 0
-58 -60 0
-59 -60 0
55 52 61 0
-55 -61 0
-52 -61 0
21 62 63 0
-21 -63 0
-62 -63 0
-21 -62 64 0
21 -64 0
62 -64 0
63 64 65 0
-63 -65 0
-64 -65 0
-61 65 66 0
61 -66 0
-65 -66 0
61 -65 67 0
-61 -67 0
65 -67 0
66 67 68 0
-66 -68 0
-67 -68 0
-68 25 69 0
68 -69 0
-25 -69 0
60 69 70 0
-60 -70 0
-69 -70 0
68 -25 71 0
-68 -71 0
25 -71 0
70 71 72 0
-70 -72 0
-71 -72 0
67 64 73 0
-67 -73 0
-64 -73 0
16 74 75 0
-16 -75 0
-74 -75 0
-16 -74 76 0
16 -76 0
74 -76 0
75 76 77 0
-75 -77 0
-76 -77 0
-73 77 78 0
73 -78 0
-77 -78 0
73 -77 79 0
-73 -79 0
77 -79 0
78 79 80 0
-78 -80 0
-79 -80 0
80 -4 81 0
-80 -81 0
4 -81 0
-72 81 82 0
72 -82 0
-81 -82 0
-80 4 83 0
80 -83 0
-4 -83 0
82 83 84 0
-82 -84 0
-83 -84 0
-14 85 86 0
14 -86 0
-85 -86 0
14 -85 87 0
-14 -87 0
85 -87 0
86 87 88 0
-86 -88 0
-87 -88 0
79 76 89 0
-79 -89 0
-76 -89 0
88 89 90 0
-88 -90 0
-89 -90 0
-88 -89 91 0
88 -91 0
89 -91 0
90 91 92 0
-90 -92 0
-91 -92 0
-92 1 93 0
92 -93 0
-1 -93 0
84 93 94 0
-84 -94 0
-93 -94 0
92 -1 95 0
-92 -95 0
1 -95 0
94 95 96 0
-94 -96 0
-95 -96 0
-32 -56 97 0
32 -97 0
56 -97 0
-97 -8 98 0
97 -98 0
8 -98 0
-13 -68 99 0
13 -99 0
68 -99 0
-99 -43 100 0
99 -100 0
43 -100 0
-100 -80 101 0
100 -101 0
80 -101 0
-98 -101 102 0
98 -102 0
101 -102 0
-102 92 103 0
102 -103 0
-92 -103 0
-96 103 104 0
96 -104 0
-103 -104 0
96 -103 105 0
-96 -105 0
103 -105 0
104 105 106 0
-104 -106 0
-105 -106 0
106 0
